n = 17;
lu = [|103, 165
      |7, 12
      |-62, 288
      |-204, -122
      |-139, -138
      |-134, -100
      |-227, -101
      |-109, 40
      |-249, -173
      |-172, 25
      |-65, 135
      |-50, 175
      |-232, 132
      |-60, 148
      |-116, 92
      |193, 240
      |169, 263|];
